unsat
(error "line 2825 column 17: model is not available")
(error "line 2826 column 17: model is not available")
(error "line 2827 column 18: model is not available")
(error "line 2828 column 18: model is not available")
(error "line 2829 column 18: model is not available")
(error "line 2830 column 18: model is not available")
(error "line 2831 column 18: model is not available")
(error "line 2832 column 18: model is not available")
(error "line 2833 column 18: model is not available")
(error "line 2834 column 18: model is not available")
(error "line 2835 column 18: model is not available")
(error "line 2836 column 17: model is not available")
(error "line 2837 column 17: model is not available")
(error "line 2838 column 17: model is not available")
(error "line 2839 column 17: model is not available")
(error "line 2840 column 17: model is not available")
(error "line 2841 column 17: model is not available")
(error "line 2842 column 17: model is not available")
(error "line 2843 column 17: model is not available")
(error "line 2844 column 38: model is not available")
(error "line 2845 column 45: model is not available")
(error "line 2846 column 38: model is not available")
(error "line 2847 column 45: model is not available")
(error "line 2848 column 46: model is not available")
(error "line 2849 column 53: model is not available")
(error "line 2850 column 40: model is not available")
(error "line 2851 column 47: model is not available")
(error "line 2852 column 38: model is not available")
(error "line 2853 column 45: model is not available")
(error "line 2854 column 38: model is not available")
(error "line 2855 column 45: model is not available")
(error "line 2856 column 41: model is not available")
(error "line 2857 column 48: model is not available")
(error "line 2858 column 41: model is not available")
(error "line 2859 column 48: model is not available")
(error "line 2860 column 41: model is not available")
(error "line 2861 column 48: model is not available")
(error "line 2862 column 41: model is not available")
(error "line 2863 column 41: model is not available")
(error "line 2864 column 48: model is not available")
(error "line 2865 column 37: model is not available")
(error "line 2866 column 44: model is not available")
(error "line 2867 column 42: model is not available")
(error "line 2868 column 42: model is not available")
(error "line 2869 column 42: model is not available")
(error "line 2870 column 38: model is not available")
(error "line 2871 column 38: model is not available")
(error "line 2872 column 38: model is not available")
(error "line 2873 column 38: model is not available")
(error "line 2874 column 38: model is not available")
(error "line 2875 column 41: model is not available")
(error "line 2876 column 48: model is not available")
(error "line 2877 column 22: model is not available")
(error "line 2878 column 20: model is not available")
(error "line 2879 column 22: model is not available")
(error "line 2880 column 22: model is not available")
(error "line 2881 column 29: model is not available")
(error "line 2882 column 38: model is not available")
(error "line 2883 column 38: model is not available")
(error "line 2884 column 38: model is not available")
(error "line 2885 column 18: model is not available")
(error "line 2886 column 25: model is not available")
(error "line 2887 column 19: model is not available")
(error "line 2888 column 26: model is not available")
(error "line 2889 column 19: model is not available")
(error "line 2890 column 19: model is not available")
(error "line 2891 column 26: model is not available")
(error "line 2892 column 19: model is not available")
(error "line 2893 column 19: model is not available")
(error "line 2894 column 26: model is not available")
(error "line 2895 column 19: model is not available")
(error "line 2896 column 19: model is not available")
(error "line 2897 column 26: model is not available")
(error "line 2898 column 19: model is not available")
(error "line 2899 column 19: model is not available")
(error "line 2900 column 26: model is not available")
(error "line 2901 column 19: model is not available")
(error "line 2902 column 18: model is not available")
(error "line 2903 column 25: model is not available")
(error "line 2904 column 19: model is not available")
(error "line 2905 column 26: model is not available")
(error "line 2906 column 19: model is not available")
(error "line 2907 column 18: model is not available")
(error "line 2908 column 18: model is not available")
(error "line 2909 column 25: model is not available")
(error "line 2910 column 18: model is not available")
(error "line 2911 column 25: model is not available")
(error "line 2912 column 18: model is not available")
(error "line 2913 column 25: model is not available")
(error "line 2914 column 18: model is not available")
(error "line 2915 column 25: model is not available")
(error "line 2916 column 18: model is not available")
(error "line 2917 column 25: model is not available")
(error "line 2918 column 18: model is not available")
(error "line 2919 column 25: model is not available")
(error "line 2920 column 18: model is not available")
(error "line 2921 column 25: model is not available")
(error "line 2922 column 19: model is not available")
(error "line 2923 column 26: model is not available")
(error "line 2924 column 19: model is not available")
(error "line 2925 column 19: model is not available")
(error "line 2926 column 26: model is not available")
(error "line 2927 column 19: model is not available")
(error "line 2928 column 19: model is not available")
(error "line 2929 column 26: model is not available")
(error "line 2930 column 19: model is not available")
(error "line 2931 column 19: model is not available")
(error "line 2932 column 26: model is not available")
(error "line 2933 column 19: model is not available")
(error "line 2934 column 26: model is not available")
(error "line 2935 column 19: model is not available")
(error "line 2936 column 26: model is not available")
(error "line 2937 column 19: model is not available")
(error "line 2938 column 26: model is not available")
(error "line 2939 column 18: model is not available")
(error "line 2940 column 25: model is not available")
(error "line 2941 column 19: model is not available")
(error "line 2942 column 26: model is not available")
(error "line 2943 column 19: model is not available")
(error "line 2944 column 26: model is not available")
(error "line 2945 column 18: model is not available")
(error "line 2946 column 18: model is not available")
(error "line 2947 column 25: model is not available")
(error "line 2948 column 18: model is not available")
(error "line 2949 column 18: model is not available")
(error "line 2950 column 25: model is not available")
(error "line 2951 column 18: model is not available")
(error "line 2952 column 18: model is not available")
(error "line 2953 column 25: model is not available")
(error "line 2954 column 18: model is not available")
(error "line 2955 column 36: model is not available")
(error "line 2956 column 36: model is not available")
(error "line 2957 column 36: model is not available")
(error "line 2958 column 35: model is not available")
(error "line 2959 column 35: model is not available")
(error "line 2960 column 35: model is not available")
(error "line 2961 column 35: model is not available")
(error "line 2962 column 31: model is not available")
(error "line 2963 column 33: model is not available")
(error "line 2964 column 40: model is not available")
(error "line 2965 column 33: model is not available")
(error "line 2966 column 40: model is not available")
(error "line 2967 column 31: model is not available")
(error "line 2968 column 33: model is not available")
(error "line 2969 column 40: model is not available")
(error "line 2970 column 33: model is not available")
(error "line 2971 column 40: model is not available")
(error "line 2972 column 31: model is not available")
(error "line 2973 column 31: model is not available")
(error "line 2974 column 52: model is not available")
(error "line 2975 column 51: model is not available")
(error "line 2976 column 51: model is not available")
(error "line 2977 column 52: model is not available")
(error "line 2978 column 51: model is not available")
(error "line 2979 column 51: model is not available")
(error "line 2980 column 51: model is not available")
(error "line 2981 column 51: model is not available")
(error "line 2982 column 51: model is not available")
(error "line 2983 column 53: model is not available")
(error "line 2984 column 53: model is not available")
(error "line 2985 column 52: model is not available")
(error "line 2986 column 52: model is not available")
(error "line 2987 column 52: model is not available")
(error "line 2988 column 52: model is not available")
(error "line 2989 column 52: model is not available")
(error "line 2990 column 52: model is not available")
(error "line 2991 column 52: model is not available")
(error "line 2992 column 51: model is not available")
(error "line 2993 column 51: model is not available")
(error "line 2994 column 51: model is not available")
(error "line 2995 column 51: model is not available")
(error "line 2996 column 51: model is not available")
(error "line 2997 column 53: model is not available")
(error "line 2998 column 53: model is not available")
(error "line 2999 column 52: model is not available")
(error "line 3000 column 52: model is not available")
(error "line 3001 column 52: model is not available")
(error "line 3002 column 52: model is not available")
(error "line 3003 column 52: model is not available")
(error "line 3004 column 52: model is not available")
(error "line 3005 column 52: model is not available")
(error "line 3006 column 51: model is not available")
(error "line 3007 column 51: model is not available")
(error "line 3008 column 51: model is not available")
(error "line 3009 column 51: model is not available")
(error "line 3010 column 51: model is not available")
(error "line 3011 column 52: model is not available")
(error "line 3012 column 52: model is not available")
(error "line 3013 column 51: model is not available")
(error "line 3014 column 51: model is not available")
(error "line 3015 column 51: model is not available")
(error "line 3016 column 51: model is not available")
(error "line 3017 column 51: model is not available")
(error "line 3018 column 52: model is not available")
(error "line 3019 column 52: model is not available")
(error "line 3020 column 51: model is not available")
(error "line 3021 column 51: model is not available")
(error "line 3022 column 51: model is not available")
(error "line 3023 column 51: model is not available")
(error "line 3024 column 51: model is not available")
(error "line 3025 column 52: model is not available")
(error "line 3026 column 52: model is not available")
(error "line 3027 column 51: model is not available")
(error "line 3028 column 51: model is not available")
(error "line 3029 column 51: model is not available")
(error "line 3030 column 51: model is not available")
(error "line 3031 column 51: model is not available")
(error "line 3032 column 50: model is not available")
(error "line 3033 column 52: model is not available")
(error "line 3034 column 51: model is not available")
(error "line 3035 column 51: model is not available")
(error "line 3036 column 51: model is not available")
(error "line 3037 column 51: model is not available")
(error "line 3038 column 51: model is not available")
(error "line 3039 column 52: model is not available")
(error "line 3040 column 53: model is not available")
(error "line 3041 column 52: model is not available")
(error "line 3042 column 52: model is not available")
(error "line 3043 column 52: model is not available")
(error "line 3044 column 52: model is not available")
(error "line 3045 column 52: model is not available")
(error "line 3046 column 51: model is not available")
(error "line 3047 column 52: model is not available")
(error "line 3048 column 51: model is not available")
(error "line 3049 column 51: model is not available")
(error "line 3050 column 51: model is not available")
(error "line 3051 column 51: model is not available")
(error "line 3052 column 51: model is not available")
(error "line 3053 column 51: model is not available")
(error "line 3054 column 52: model is not available")
(error "line 3055 column 51: model is not available")
(error "line 3056 column 51: model is not available")
(error "line 3057 column 51: model is not available")
(error "line 3058 column 51: model is not available")
(error "line 3059 column 51: model is not available")
(error "line 3060 column 51: model is not available")
(error "line 3061 column 52: model is not available")
(error "line 3062 column 51: model is not available")
(error "line 3063 column 51: model is not available")
(error "line 3064 column 51: model is not available")
(error "line 3065 column 51: model is not available")
(error "line 3066 column 51: model is not available")
(error "line 3067 column 51: model is not available")
(error "line 3068 column 52: model is not available")
(error "line 3069 column 51: model is not available")
(error "line 3070 column 51: model is not available")
(error "line 3071 column 51: model is not available")
(error "line 3072 column 51: model is not available")
(error "line 3073 column 51: model is not available")
(error "line 3074 column 58: model is not available")
(error "line 3075 column 57: model is not available")
(error "line 3076 column 57: model is not available")
(error "line 3077 column 57: model is not available")
(error "line 3078 column 57: model is not available")
(error "line 3079 column 57: model is not available")
(error "line 3080 column 57: model is not available")
(error "line 3081 column 56: model is not available")
(error "line 3082 column 56: model is not available")
(error "line 3083 column 56: model is not available")
(error "line 3084 column 56: model is not available")
(error "line 3085 column 56: model is not available")
(error "line 3086 column 46: model is not available")
(error "line 3087 column 46: model is not available")
(error "line 3088 column 46: model is not available")
(error "line 3089 column 46: model is not available")
(error "line 3090 column 54: model is not available")
(error "line 3091 column 54: model is not available")
(error "line 3092 column 54: model is not available")
(error "line 3093 column 54: model is not available")
(error "line 3094 column 54: model is not available")
(error "line 3095 column 54: model is not available")
(error "line 3096 column 40: model is not available")
(error "line 3097 column 40: model is not available")
(error "line 3098 column 40: model is not available")
(error "line 3099 column 40: model is not available")
(error "line 3100 column 41: model is not available")
(error "line 3101 column 41: model is not available")
(error "line 3102 column 41: model is not available")
(error "line 3103 column 41: model is not available")
(error "line 3104 column 50: model is not available")
(error "line 3105 column 50: model is not available")
(error "line 3106 column 50: model is not available")
(error "line 3107 column 50: model is not available")
(error "line 3108 column 43: model is not available")
(error "line 3109 column 43: model is not available")
(error "line 3110 column 43: model is not available")
(error "line 3111 column 43: model is not available")
(error "line 3112 column 26: model is not available")
(error "line 3113 column 27: model is not available")
(error "line 3114 column 34: model is not available")
(error "line 3115 column 34: model is not available")
(error "line 3116 column 30: model is not available")
(error "line 3117 column 30: model is not available")
(error "line 3118 column 32: model is not available")
(error "line 3119 column 32: model is not available")
(error "line 3120 column 32: model is not available")
(error "line 3121 column 32: model is not available")
(error "line 3122 column 32: model is not available")
(error "line 3123 column 32: model is not available")
(error "line 3124 column 32: model is not available")
(error "line 3125 column 32: model is not available")
(error "line 3126 column 28: model is not available")
(error "line 3127 column 34: model is not available")
(error "line 3128 column 34: model is not available")
(error "line 3129 column 32: model is not available")
(error "line 3130 column 32: model is not available")
(error "line 3131 column 32: model is not available")
(error "line 3132 column 32: model is not available")
(error "line 3133 column 32: model is not available")
(error "line 3134 column 32: model is not available")
(error "line 3135 column 32: model is not available")
(error "line 3136 column 32: model is not available")
(error "line 3137 column 28: model is not available")
(error "line 3139 column 10: model is not available")
(:added-eqs                      99894
 :arith-bound-propagations-cheap 19674
 :arith-bound-propagations-lp    1153
 :arith-conflicts                9
 :arith-lower                    12387
 :arith-make-feasible            5783
 :arith-max-columns              138
 :arith-max-rows                 109
 :arith-propagations             19674
 :arith-upper                    7867
 :binary-propagations            402331
 :bv-bit2core                    277757
 :bv-diseqs                      12
 :bv-dynamic-diseqs              262
 :bv->core-eq                    3809
 :conflicts                      4649
 :decisions                      39123
 :del-clause                     31826
 :eliminated-applications        18
 :eliminated-vars                15
 :max-memory                     7.91
 :memory                         4.28
 :minimized-lits                 113163
 :mk-bool-var                    19746
 :mk-clause                      41497
 :num-allocs                     36877993
 :num-checks                     1
 :propagations                   882885
 :restarts                       36
 :rlimit-count                   2842091
 :time                           0.62
 :total-time                     0.62)

real	0m0.629s
user	0m0.622s
sys	0m0.007s
State: RE Run_time: 0.6307148933410645